c File: instances/28_0.20_2.col
c
c Description: Random graph of size 28 vertices and P(0.2) of edges between any two vertices.
p col 28 378
e 1 3
e 1 6
e 1 7
e 1 12
e 1 14
e 1 17
e 1 22
e 2 12
e 2 17
e 3 8
e 3 14
e 3 19
e 3 22
e 4 7
e 4 10
e 4 19
e 4 20
e 4 28
e 5 6
e 5 8
e 5 9
e 5 10
e 5 19
e 5 24
e 5 27
e 6 10
e 6 13
e 6 21
e 6 25
e 7 11
e 7 14
e 7 24
e 8 25
e 8 27
e 9 12
e 9 15
e 10 11
e 10 13
e 10 21
e 11 15
e 11 25
e 12 13
e 12 14
e 12 24
e 12 27
e 13 15
e 13 16
e 13 21
e 13 23
e 13 26
e 13 28
e 14 17
e 14 21
e 14 23
e 14 27
e 14 28
e 15 16
e 15 24
e 15 25
e 16 22
e 16 24
e 16 25
e 16 27
e 17 18
e 18 27
e 20 22
e 20 28
e 21 27
e 22 27
e 24 27
e 26 28